(set-logic CHC_LIA)

(synth-fun h1 ((x_0 Int) (x_1 Int) (x_2 Int) (x_3 Int) (x_4 Int) (x_5 Int) (x_6 Int) (x_7 Int) (x_8 Int) (x_9 Int) (x_10 Int) (x_11 Int) (x_12 Int) (x_13 Int) (x_14 Int) (x_15 Int)) Bool)

(synth-fun h2 ((x_0 Int) (x_1 Int) (x_2 Int) (x_3 Int) (x_4 Int) (x_5 Int) (x_6 Int) (x_7 Int) (x_8 Int) (x_9 Int) (x_10 Int) (x_11 Int) (x_12 Int) (x_13 Int) (x_14 Int) (x_15 Int)) Bool)

(synth-fun h3 ((x_0 Int) (x_1 Int) (x_2 Int) (x_3 Int) (x_4 Int) (x_5 Int) (x_6 Int) (x_7 Int) (x_8 Int) (x_9 Int) (x_10 Int) (x_11 Int) (x_12 Int) (x_13 Int) (x_14 Int) (x_15 Int)) Bool)

(synth-fun h4 ((x_0 Int) (x_1 Int) (x_2 Int) (x_3 Int) (x_4 Int) (x_5 Int) (x_6 Int) (x_7 Int) (x_8 Int) (x_9 Int) (x_10 Int) (x_11 Int) (x_12 Int) (x_13 Int) (x_14 Int) (x_15 Int)) Bool)

(synth-fun h5 ((x_0 Int) (x_1 Int) (x_2 Int) (x_3 Int) (x_4 Int) (x_5 Int) (x_6 Int) (x_7 Int) (x_8 Int) (x_9 Int) (x_10 Int) (x_11 Int) (x_12 Int) (x_13 Int) (x_14 Int) (x_15 Int)) Bool)

(synth-fun h6 ((x_0 Int) (x_1 Int) (x_2 Int) (x_3 Int) (x_4 Int) (x_5 Int) (x_6 Int) (x_7 Int) (x_8 Int) (x_9 Int) (x_10 Int) (x_11 Int) (x_12 Int) (x_13 Int) (x_14 Int) (x_15 Int)) Bool)

(synth-fun h7 ((x_0 Int) (x_1 Int) (x_2 Int) (x_3 Int) (x_4 Int) (x_5 Int) (x_6 Int) (x_7 Int) (x_8 Int) (x_9 Int) (x_10 Int) (x_11 Int) (x_12 Int) (x_13 Int) (x_14 Int) (x_15 Int)) Bool)

(synth-fun h8 ((x_0 Int) (x_1 Int) (x_2 Int) (x_3 Int) (x_4 Int) (x_5 Int) (x_6 Int) (x_7 Int) (x_8 Int) (x_9 Int) (x_10 Int) (x_11 Int) (x_12 Int) (x_13 Int) (x_14 Int) (x_15 Int)) Bool)

(synth-fun h9 ((x_0 Int) (x_1 Int) (x_2 Int) (x_3 Int) (x_4 Int) (x_5 Int) (x_6 Int) (x_7 Int) (x_8 Int) (x_9 Int) (x_10 Int) (x_11 Int) (x_12 Int) (x_13 Int) (x_14 Int) (x_15 Int)) Bool)

(synth-fun h10 ((x_0 Int) (x_1 Int) (x_2 Int) (x_3 Int) (x_4 Int) (x_5 Int) (x_6 Int) (x_7 Int) (x_8 Int) (x_9 Int) (x_10 Int) (x_11 Int) (x_12 Int) (x_13 Int) (x_14 Int) (x_15 Int)) Bool)

(synth-fun h11 ((x_0 Int) (x_1 Int) (x_2 Int) (x_3 Int) (x_4 Int) (x_5 Int) (x_6 Int) (x_7 Int) (x_8 Int) (x_9 Int) (x_10 Int) (x_11 Int) (x_12 Int) (x_13 Int) (x_14 Int) (x_15 Int)) Bool)

(synth-fun h12 ((x_0 Int) (x_1 Int) (x_2 Int) (x_3 Int) (x_4 Int) (x_5 Int) (x_6 Int) (x_7 Int) (x_8 Int) (x_9 Int) (x_10 Int) (x_11 Int) (x_12 Int) (x_13 Int) (x_14 Int) (x_15 Int)) Bool)

(synth-fun h13 ((x_0 Int) (x_1 Int) (x_2 Int) (x_3 Int) (x_4 Int) (x_5 Int) (x_6 Int) (x_7 Int) (x_8 Int) (x_9 Int) (x_10 Int) (x_11 Int) (x_12 Int) (x_13 Int) (x_14 Int) (x_15 Int)) Bool)

(synth-fun h14 ((x_0 Int) (x_1 Int) (x_2 Int) (x_3 Int) (x_4 Int) (x_5 Int) (x_6 Int) (x_7 Int) (x_8 Int) (x_9 Int) (x_10 Int) (x_11 Int) (x_12 Int) (x_13 Int) (x_14 Int) (x_15 Int)) Bool)

(synth-fun h15 ((x_0 Int) (x_1 Int) (x_2 Int) (x_3 Int) (x_4 Int) (x_5 Int) (x_6 Int) (x_7 Int) (x_8 Int) (x_9 Int) (x_10 Int) (x_11 Int) (x_12 Int) (x_13 Int) (x_14 Int) (x_15 Int)) Bool)

(synth-fun h16 ((x_0 Int) (x_1 Int) (x_2 Int) (x_3 Int) (x_4 Int) (x_5 Int) (x_6 Int) (x_7 Int) (x_8 Int) (x_9 Int) (x_10 Int) (x_11 Int) (x_12 Int) (x_13 Int) (x_14 Int) (x_15 Int)) Bool)

(synth-fun h17 ((x_0 Int) (x_1 Int) (x_2 Int) (x_3 Int) (x_4 Int) (x_5 Int) (x_6 Int) (x_7 Int) (x_8 Int) (x_9 Int) (x_10 Int) (x_11 Int) (x_12 Int) (x_13 Int) (x_14 Int) (x_15 Int)) Bool)

(synth-fun h18 ((x_0 Int) (x_1 Int) (x_2 Int) (x_3 Int) (x_4 Int) (x_5 Int) (x_6 Int) (x_7 Int) (x_8 Int) (x_9 Int) (x_10 Int) (x_11 Int) (x_12 Int) (x_13 Int) (x_14 Int) (x_15 Int)) Bool)

(synth-fun h19 ((x_0 Int) (x_1 Int) (x_2 Int) (x_3 Int) (x_4 Int) (x_5 Int) (x_6 Int) (x_7 Int) (x_8 Int) (x_9 Int) (x_10 Int) (x_11 Int) (x_12 Int) (x_13 Int) (x_14 Int) (x_15 Int)) Bool)

(synth-fun h20 ((x_0 Int) (x_1 Int) (x_2 Int) (x_3 Int) (x_4 Int) (x_5 Int) (x_6 Int) (x_7 Int) (x_8 Int) (x_9 Int) (x_10 Int) (x_11 Int) (x_12 Int) (x_13 Int) (x_14 Int) (x_15 Int)) Bool)

(synth-fun h21 ((x_0 Int) (x_1 Int) (x_2 Int) (x_3 Int) (x_4 Int) (x_5 Int) (x_6 Int) (x_7 Int) (x_8 Int) (x_9 Int) (x_10 Int) (x_11 Int) (x_12 Int) (x_13 Int) (x_14 Int) (x_15 Int)) Bool)

(synth-fun h22 ((x_0 Int) (x_1 Int) (x_2 Int) (x_3 Int) (x_4 Int) (x_5 Int) (x_6 Int) (x_7 Int) (x_8 Int) (x_9 Int) (x_10 Int) (x_11 Int) (x_12 Int) (x_13 Int) (x_14 Int) (x_15 Int)) Bool)

(synth-fun h23 ((x_0 Int) (x_1 Int) (x_2 Int) (x_3 Int) (x_4 Int) (x_5 Int) (x_6 Int) (x_7 Int) (x_8 Int) (x_9 Int) (x_10 Int) (x_11 Int) (x_12 Int) (x_13 Int) (x_14 Int) (x_15 Int)) Bool)

(synth-fun h24 ((x_0 Int) (x_1 Int) (x_2 Int) (x_3 Int) (x_4 Int) (x_5 Int) (x_6 Int) (x_7 Int) (x_8 Int) (x_9 Int) (x_10 Int) (x_11 Int) (x_12 Int) (x_13 Int) (x_14 Int) (x_15 Int)) Bool)

(synth-fun h25 ((x_0 Int) (x_1 Int) (x_2 Int) (x_3 Int) (x_4 Int) (x_5 Int) (x_6 Int) (x_7 Int) (x_8 Int) (x_9 Int) (x_10 Int) (x_11 Int) (x_12 Int) (x_13 Int) (x_14 Int) (x_15 Int)) Bool)

(synth-fun h26 ((x_0 Int) (x_1 Int) (x_2 Int) (x_3 Int) (x_4 Int) (x_5 Int) (x_6 Int) (x_7 Int) (x_8 Int) (x_9 Int) (x_10 Int) (x_11 Int) (x_12 Int) (x_13 Int) (x_14 Int) (x_15 Int)) Bool)

(synth-fun h27 ((x_0 Int) (x_1 Int) (x_2 Int) (x_3 Int) (x_4 Int) (x_5 Int) (x_6 Int) (x_7 Int) (x_8 Int) (x_9 Int) (x_10 Int) (x_11 Int) (x_12 Int) (x_13 Int) (x_14 Int) (x_15 Int)) Bool)

(constraint (forall ((A Int) (B Int) (C Int) (D Int) (E Int) (F Int) (G Int) (H Int)) (=> (= 1 1) (h1 A B C D E F G H A B C D E F G H))))
(constraint (forall ((I Int) (J Int) (K Int) (L Int) (M Int) (N Int) (A Int) (B Int) (C Int) (D Int) (E Int) (F Int) (G Int) (H Int) (Q Int) (R Int) (S Int) (T Int) (U Int) (V Int) (O Int) (P Int)) (=> (and (= I 1) (= J 0) (= K 1) (= L 0) (= M 0) (= N 0) (h1 A B C D E F G H Q R S T U V O P)) (h2 A B C D E F G H I J K L M N O P))))
(constraint (forall ((A Int) (B Int) (C Int) (D Int) (E Int) (F Int) (G Int) (H Int) (I Int) (J Int) (K Int) (L Int) (M Int) (N Int) (O Int) (P Int)) (=> (h2 A B C D E F G H I J K L M N O P) (h3 A B C D E F G H I J K L M N O P))))
(constraint (forall ((A Int) (B Int) (C Int) (D Int) (E Int) (F Int) (G Int) (H Int) (I Int) (J Int) (K Int) (L Int) (M Int) (N Int) (O Int) (P Int)) (=> (h3 A B C D E F G H I J K L M N O P) (h4 A B C D E F G H I J K L M N O P))))
(constraint (forall ((A Int) (B Int) (C Int) (D Int) (E Int) (F Int) (G Int) (H Int) (I Int) (J Int) (K Int) (L Int) (M Int) (N Int) (O Int) (P Int)) (=> (h4 A B C D E F G H I J K L M N O P) (h5 A B C D E F G H I J K L M N O P))))
(constraint (forall ((A Int) (B Int) (C Int) (D Int) (E Int) (F Int) (G Int) (H Int) (I Int) (J Int) (K Int) (L Int) (M Int) (N Int) (O Int) (P Int)) (=> (h5 A B C D E F G H I J K L M N O P) (h6 A B C D E F G H I J K L M N O P))))
(constraint (forall ((A Int) (B Int) (C Int) (D Int) (E Int) (F Int) (G Int) (H Int) (I Int) (J Int) (K Int) (L Int) (M Int) (N Int) (O Int) (P Int)) (=> (h6 A B C D E F G H I J K L M N O P) (h7 A B C D E F G H I J K L M N O P))))
(constraint (forall ((A Int) (B Int) (C Int) (D Int) (E Int) (F Int) (G Int) (H Int) (I Int) (J Int) (K Int) (L Int) (M Int) (N Int) (O Int) (P Int)) (=> (h7 A B C D E F G H I J K L M N O P) (h8 A B C D E F G H I J K L M N O P))))
(constraint (forall ((O Int) (A Int) (B Int) (C Int) (D Int) (E Int) (F Int) (G Int) (H Int) (I Int) (J Int) (K Int) (L Int) (M Int) (N Int) (P Int)) (=> (and (<= O (- 1)) (h8 A B C D E F G H I J K L M N O P)) (h9 A B C D E F G H I J K L M N O P))))
(constraint (forall ((Q Int) (L Int) (N Int) (K Int) (M Int) (R Int) (A Int) (B Int) (C Int) (D Int) (E Int) (F Int) (G Int) (H Int) (I Int) (J Int) (O Int) (P Int)) (let ((a!1 (- (+ (- (- 1 L) N) K) M))) (let ((a!2 (and (= Q a!1) (= R (+ (- 1) M)) (h9 A B C D E F G H I J Q L R N O P)))) (=> a!2 (h10 A B C D E F G H I J K L M N O P))))))
(constraint (forall ((O Int) (A Int) (B Int) (C Int) (D Int) (E Int) (F Int) (G Int) (H Int) (I Int) (J Int) (K Int) (L Int) (M Int) (N Int) (P Int)) (=> (and (>= O 1) (h8 A B C D E F G H I J K L M N O P)) (h11 A B C D E F G H I J K L M N O P))))
(constraint (forall ((Q Int) (L Int) (N Int) (K Int) (M Int) (R Int) (A Int) (B Int) (C Int) (D Int) (E Int) (F Int) (G Int) (H Int) (I Int) (J Int) (O Int) (P Int)) (let ((a!1 (- (+ (- (- 1 L) N) K) M))) (let ((a!2 (and (= Q a!1) (= R (+ (- 1) M)) (h11 A B C D E F G H I J Q L R N O P)))) (=> a!2 (h10 A B C D E F G H I J K L M N O P))))))
(constraint (forall ((O Int) (A Int) (B Int) (C Int) (D Int) (E Int) (F Int) (G Int) (H Int) (I Int) (J Int) (K Int) (L Int) (M Int) (N Int) (P Int)) (=> (and (= O 0) (h8 A B C D E F G H I J K L M N O P)) (h12 A B C D E F G H I J K L M N O P))))
(constraint (forall ((A Int) (B Int) (C Int) (D Int) (E Int) (F Int) (G Int) (H Int) (I Int) (J Int) (K Int) (L Int) (M Int) (N Int) (O Int) (P Int)) (=> (h12 A B C D E F G H I J K L M N O P) (h13 A B C D E F G H I J K L M N O P))))
(constraint (forall ((A Int) (B Int) (C Int) (D Int) (E Int) (F Int) (G Int) (H Int) (I Int) (J Int) (K Int) (L Int) (M Int) (N Int) (O Int) (P Int)) (=> (h13 A B C D E F G H I J K L M N O P) (h14 A B C D E F G H I J K L M N O P))))
(constraint (forall ((A Int) (B Int) (C Int) (D Int) (E Int) (F Int) (G Int) (H Int) (I Int) (J Int) (K Int) (L Int) (M Int) (N Int) (O Int) (P Int)) (=> (h10 A B C D E F G H I J K L M N O P) (h15 A B C D E F G H I J K L M N O P))))
(constraint (forall ((A Int) (B Int) (C Int) (D Int) (E Int) (F Int) (G Int) (H Int) (I Int) (J Int) (K Int) (L Int) (M Int) (N Int) (O Int) (P Int)) (=> (h15 A B C D E F G H I J K L M N O P) (h16 A B C D E F G H I J K L M N O P))))
(constraint (forall ((Q Int) (L Int) (A Int) (B Int) (C Int) (D Int) (E Int) (F Int) (G Int) (H Int) (I Int) (J Int) (K Int) (M Int) (N Int) (O Int) (P Int)) (let ((a!1 (and (= Q (+ (- 1) L)) (h16 A B C D E F G H I J K Q M N O P)))) (=> a!1 (h17 A B C D E F G H I J K L M N O P)))))
(constraint (forall ((A Int) (B Int) (C Int) (D Int) (E Int) (F Int) (G Int) (H Int) (I Int) (J Int) (K Int) (L Int) (M Int) (N Int) (O Int) (P Int)) (=> (h15 A B C D E F G H I J K L M N O P) (h18 A B C D E F G H I J K L M N O P))))
(constraint (forall ((Q Int) (N Int) (A Int) (B Int) (C Int) (D Int) (E Int) (F Int) (G Int) (H Int) (I Int) (J Int) (K Int) (L Int) (M Int) (O Int) (P Int)) (let ((a!1 (and (= Q (+ (- 2) N)) (h18 A B C D E F G H I J K L M Q O P)))) (=> a!1 (h19 A B C D E F G H I J K L M N O P)))))
(constraint (forall ((A Int) (B Int) (C Int) (D Int) (E Int) (F Int) (G Int) (H Int) (I Int) (J Int) (K Int) (L Int) (M Int) (N Int) (O Int) (P Int)) (=> (h15 A B C D E F G H I J K L M N O P) (h20 A B C D E F G H I J K L M N O P))))
(constraint (forall ((Q Int) (N Int) (A Int) (B Int) (C Int) (D Int) (E Int) (F Int) (G Int) (H Int) (I Int) (J Int) (K Int) (L Int) (M Int) (O Int) (P Int)) (let ((a!1 (and (= Q (+ (- 2) N)) (h20 A B C D E F G H I J K L M Q O P)))) (=> a!1 (h19 A B C D E F G H I J K L M N O P)))))
(constraint (forall ((Q Int) (N Int) (A Int) (B Int) (C Int) (D Int) (E Int) (F Int) (G Int) (H Int) (I Int) (J Int) (K Int) (L Int) (M Int) (O Int) (P Int)) (let ((a!1 (and (= Q (+ (- 2) N)) (h17 A B C D E F G H I J K L M Q O P)))) (=> a!1 (h19 A B C D E F G H I J K L M N O P)))))
(constraint (forall ((A Int) (B Int) (C Int) (D Int) (E Int) (F Int) (G Int) (H Int) (I Int) (J Int) (K Int) (L Int) (M Int) (N Int) (O Int) (P Int)) (=> (h19 A B C D E F G H I J K L M N O P) (h5 A B C D E F G H I J K L M N O P))))
(constraint (forall ((A Int) (B Int) (C Int) (D Int) (E Int) (F Int) (G Int) (H Int) (I Int) (J Int) (K Int) (L Int) (M Int) (N Int) (O Int) (P Int)) (=> (h14 A B C D E F G H I J K L M N O P) (h21 A B C D E F G H I J K L M N O P))))
(constraint (forall ((L Int) (M Int) (A Int) (B Int) (C Int) (D Int) (E Int) (F Int) (G Int) (H Int) (I Int) (J Int) (K Int) (N Int) (O Int) (P Int)) (=> (and (<= (- L M) (- 1)) (h21 A B C D E F G H I J K L M N O P)) (h22 A B C D E F G H I J K L M N O P))))
(constraint (forall ((A Int) (B Int) (C Int) (D Int) (E Int) (F Int) (G Int) (H Int) (I Int) (J Int) (K Int) (L Int) (M Int) (N Int) (O Int) (P Int)) (=> (h22 A B C D E F G H I J K L M N O P) false)))
(constraint (forall ((L Int) (M Int) (A Int) (B Int) (C Int) (D Int) (E Int) (F Int) (G Int) (H Int) (I Int) (J Int) (K Int) (N Int) (O Int) (P Int)) (=> (and (>= (- L M) 1) (h21 A B C D E F G H I J K L M N O P)) (h23 A B C D E F G H I J K L M N O P))))
(constraint (forall ((A Int) (B Int) (C Int) (D Int) (E Int) (F Int) (G Int) (H Int) (I Int) (J Int) (K Int) (L Int) (M Int) (N Int) (O Int) (P Int)) (=> (h23 A B C D E F G H I J K L M N O P) false)))
(constraint (forall ((L Int) (M Int) (A Int) (B Int) (C Int) (D Int) (E Int) (F Int) (G Int) (H Int) (I Int) (J Int) (K Int) (N Int) (O Int) (P Int)) (=> (and (= L M) (h21 A B C D E F G H I J K L M N O P)) (h24 A B C D E F G H I J K L M N O P))))
(constraint (forall ((P Int) (A Int) (B Int) (C Int) (D Int) (E Int) (F Int) (G Int) (H Int) (I Int) (J Int) (K Int) (L Int) (M Int) (N Int) (O Int) (Q Int)) (=> (and (= P 0) (h24 A B C D E F G H I J K L M N O Q)) (h25 A B C D E F G H I J K L M N O P))))
(constraint (forall ((A Int) (B Int) (C Int) (D Int) (E Int) (F Int) (G Int) (H Int) (I Int) (J Int) (K Int) (L Int) (M Int) (N Int) (O Int) (P Int)) (=> (h25 A B C D E F G H I J K L M N O P) (h26 A B C D E F G H I J K L M N O P))))
(constraint (forall ((A Int) (B Int) (C Int) (D Int) (E Int) (F Int) (G Int) (H Int) (I Int) (J Int) (K Int) (L Int) (M Int) (N Int) (O Int) (P Int)) (=> (h26 A B C D E F G H I J K L M N O P) (h27 A B C D E F G H I J K L M N O P))))

(check-synth)

